SECTION Graph
Nodes 1442
Edges 2403
E 1 2 5
E 2 3 5
E 3 4 5
E 4 5 5
E 5 6 5
E 6 7 5
E 7 8 5
E 9 10 5
E 10 11 5
E 11 12 5
E 13 14 5
E 14 15 5
E 15 16 5
E 16 17 5
E 17 18 5
E 18 19 5
E 19 20 5
E 21 22 5
E 22 23 5
E 23 24 5
E 24 25 5
E 25 26 5
E 26 27 5
E 27 28 5
E 28 29 5
E 29 30 5
E 32 33 5
E 33 34 5
E 34 35 5
E 35 36 5
E 36 37 5
E 37 38 5
E 38 39 5
E 39 40 5
E 40 41 5
E 42 43 5
E 43 44 5
E 44 45 5
E 45 46 5
E 46 47 5
E 47 48 5
E 48 49 5
E 49 50 5
E 50 51 5
E 1 52 13
E 2 53 13
E 3 54 13
E 4 55 13
E 5 56 13
E 6 57 13
E 7 58 13
E 8 59 13
E 9 63 13
E 10 64 13
E 12 65 13
E 13 69 13
E 14 70 13
E 15 71 13
E 16 72 13
E 17 73 13
E 18 74 13
E 19 75 13
E 20 76 13
E 21 77 13
E 22 78 13
E 23 79 13
E 24 80 13
E 25 81 13
E 26 82 13
E 27 83 13
E 28 84 13
E 29 85 13
E 30 86 13
E 31 87 13
E 32 88 13
E 33 89 13
E 34 90 13
E 35 91 13
E 36 92 13
E 37 93 13
E 38 94 13
E 39 95 13
E 40 96 13
E 41 97 13
E 42 98 13
E 43 99 13
E 44 100 13
E 46 101 13
E 47 102 13
E 48 103 13
E 49 104 13
E 50 105 13
E 51 106 13
E 52 53 5
E 53 54 5
E 54 55 5
E 55 56 5
E 56 57 5
E 57 58 5
E 58 59 5
E 59 60 5
E 60 61 5
E 61 62 5
E 62 63 5
E 63 64 5
E 65 66 5
E 66 67 5
E 67 68 5
E 68 69 5
E 69 70 5
E 70 71 5
E 71 72 5
E 72 73 5
E 73 74 5
E 74 75 5
E 75 76 5
E 77 78 5
E 78 79 5
E 79 80 5
E 80 81 5
E 81 82 5
E 82 83 5
E 83 84 5
E 84 85 5
E 85 86 5
E 88 89 5
E 89 90 5
E 90 91 5
E 91 92 5
E 92 93 5
E 93 94 5
E 94 95 5
E 95 96 5
E 96 97 5
E 98 99 5
E 99 100 5
E 101 102 5
E 102 103 5
E 103 104 5
E 104 105 5
E 105 106 5
E 52 107 13
E 53 108 13
E 54 109 13
E 55 110 13
E 57 111 13
E 58 112 13
E 59 113 13
E 60 114 13
E 61 115 13
E 62 116 13
E 63 117 13
E 64 118 13
E 65 119 13
E 66 120 13
E 67 121 13
E 68 122 13
E 69 123 13
E 73 124 13
E 74 125 13
E 75 126 13
E 76 127 13
E 77 129 13
E 78 130 13
E 79 131 13
E 80 132 13
E 82 134 13
E 83 135 13
E 84 136 13
E 85 137 13
E 86 138 13
E 87 140 13
E 88 142 13
E 89 143 13
E 90 144 13
E 92 145 13
E 93 146 13
E 95 147 13
E 96 148 13
E 97 149 13
E 98 150 13
E 99 151 13
E 100 152 13
E 101 153 13
E 102 154 13
E 103 155 13
E 104 156 13
E 106 157 13
E 107 108 5
E 108 109 5
E 109 110 5
E 111 112 5
E 112 113 5
E 113 114 5
E 114 115 5
E 115 116 5
E 116 117 5
E 117 118 5
E 119 120 5
E 120 121 5
E 121 122 5
E 122 123 5
E 124 125 5
E 125 126 5
E 126 127 5
E 127 128 5
E 128 129 5
E 129 130 5
E 130 131 5
E 131 132 5
E 132 133 5
E 133 134 5
E 134 135 5
E 135 136 5
E 136 137 5
E 137 138 5
E 138 139 5
E 139 140 5
E 140 141 5
E 141 142 5
E 142 143 5
E 143 144 5
E 145 146 5
E 147 148 5
E 148 149 5
E 150 151 5
E 151 152 5
E 153 154 5
E 154 155 5
E 155 156 5
E 107 158 13
E 108 159 13
E 109 160 13
E 110 161 13
E 111 162 13
E 112 163 13
E 113 164 13
E 115 166 13
E 116 167 13
E 117 168 13
E 118 169 13
E 119 171 13
E 123 172 13
E 124 176 13
E 126 178 13
E 127 179 13
E 128 180 13
E 129 181 13
E 131 182 13
E 132 183 13
E 133 184 13
E 134 185 13
E 135 186 13
E 136 187 13
E 137 188 13
E 138 189 13
E 139 190 13
E 140 191 13
E 141 192 13
E 142 193 13
E 144 195 13
E 145 196 13
E 146 197 13
E 147 198 13
E 148 199 13
E 149 200 13
E 150 201 13
E 151 202 13
E 152 203 13
E 153 205 13
E 154 206 13
E 156 207 13
E 157 208 13
E 158 159 5
E 159 160 5
E 160 161 5
E 162 163 5
E 163 164 5
E 164 165 5
E 165 166 5
E 166 167 5
E 167 168 5
E 168 169 5
E 169 170 5
E 170 171 5
E 172 173 5
E 173 174 5
E 174 175 5
E 175 176 5
E 176 177 5
E 177 178 5
E 178 179 5
E 179 180 5
E 180 181 5
E 182 183 5
E 183 184 5
E 184 185 5
E 185 186 5
E 186 187 5
E 187 188 5
E 188 189 5
E 189 190 5
E 190 191 5
E 191 192 5
E 192 193 5
E 193 194 5
E 194 195 5
E 196 197 5
E 198 199 5
E 199 200 5
E 201 202 5
E 202 203 5
E 203 204 5
E 204 205 5
E 205 206 5
E 158 209 13
E 159 210 13
E 160 211 13
E 161 212 13
E 162 214 13
E 163 215 13
E 165 216 13
E 166 217 13
E 167 218 13
E 168 219 13
E 169 220 13
E 170 221 13
E 171 222 13
E 172 226 13
E 173 227 13
E 174 228 13
E 175 229 13
E 176 230 13
E 177 231 13
E 178 232 13
E 179 233 13
E 180 234 13
E 181 235 13
E 182 236 13
E 184 237 13
E 185 238 13
E 186 239 13
E 188 240 13
E 189 241 13
E 191 243 13
E 193 245 13
E 194 246 13
E 195 247 13
E 196 249 13
E 197 250 13
E 198 252 13
E 199 253 13
E 200 254 13
E 201 258 13
E 202 259 13
E 203 260 13
E 204 261 13
E 205 262 13
E 206 263 13
E 207 264 13
E 208 266 13
E 209 210 5
E 210 211 5
E 211 212 5
E 212 213 5
E 213 214 5
E 214 215 5
E 216 217 5
E 217 218 5
E 218 219 5
E 219 220 5
E 220 221 5
E 221 222 5
E 222 223 5
E 223 224 5
E 224 225 5
E 225 226 5
E 226 227 5
E 227 228 5
E 228 229 5
E 229 230 5
E 230 231 5
E 231 232 5
E 232 233 5
E 233 234 5
E 234 235 5
E 237 238 5
E 238 239 5
E 240 241 5
E 241 242 5
E 242 243 5
E 243 244 5
E 244 245 5
E 245 246 5
E 246 247 5
E 247 248 5
E 248 249 5
E 249 250 5
E 250 251 5
E 251 252 5
E 252 253 5
E 253 254 5
E 254 255 5
E 255 256 5
E 256 257 5
E 257 258 5
E 258 259 5
E 259 260 5
E 260 261 5
E 261 262 5
E 262 263 5
E 264 265 5
E 265 266 5
E 209 267 13
E 211 269 13
E 212 270 13
E 213 271 13
E 214 272 13
E 215 273 13
E 216 274 13
E 218 275 13
E 219 276 13
E 220 277 13
E 221 278 13
E 222 279 13
E 223 280 13
E 224 281 13
E 225 282 13
E 226 283 13
E 227 284 13
E 228 285 13
E 229 286 13
E 230 287 13
E 231 288 13
E 233 289 13
E 234 290 13
E 235 291 13
E 236 293 13
E 237 294 13
E 238 295 13
E 239 296 13
E 240 297 13
E 241 298 13
E 243 300 13
E 245 302 13
E 246 303 13
E 247 304 13
E 248 305 13
E 249 306 13
E 250 307 13
E 251 308 13
E 252 309 13
E 253 310 13
E 254 311 13
E 255 312 13
E 256 313 13
E 257 314 13
E 258 315 13
E 259 316 13
E 260 317 13
E 262 318 13
E 263 319 13
E 264 321 13
E 265 322 13
E 266 323 13
E 267 268 5
E 268 269 5
E 269 270 5
E 270 271 5
E 271 272 5
E 272 273 5
E 275 276 5
E 276 277 5
E 277 278 5
E 278 279 5
E 279 280 5
E 280 281 5
E 281 282 5
E 282 283 5
E 283 284 5
E 284 285 5
E 285 286 5
E 286 287 5
E 287 288 5
E 289 290 5
E 290 291 5
E 291 292 5
E 292 293 5
E 294 295 5
E 295 296 5
E 297 298 5
E 298 299 5
E 299 300 5
E 300 301 5
E 301 302 5
E 302 303 5
E 303 304 5
E 304 305 5
E 305 306 5
E 306 307 5
E 307 308 5
E 308 309 5
E 309 310 5
E 310 311 5
E 311 312 5
E 312 313 5
E 313 314 5
E 314 315 5
E 315 316 5
E 316 317 5
E 318 319 5
E 319 320 5
E 320 321 5
E 321 322 5
E 322 323 5
E 267 324 13
E 269 326 13
E 270 327 13
E 271 328 13
E 273 330 13
E 274 332 13
E 275 333 13
E 276 334 13
E 280 335 13
E 281 336 13
E 282 337 13
E 286 338 13
E 287 339 13
E 288 340 13
E 289 341 13
E 291 342 13
E 292 343 13
E 293 344 13
E 294 346 13
E 295 347 13
E 296 348 13
E 297 350 13
E 298 351 13
E 300 353 13
E 302 355 13
E 303 356 13
E 304 357 13
E 306 359 13
E 308 361 13
E 309 362 13
E 313 363 13
E 314 364 13
E 315 365 13
E 316 366 13
E 317 367 13
E 318 368 13
E 319 369 13
E 320 370 13
E 321 371 13
E 322 372 13
E 323 373 13
E 324 325 5
E 325 326 5
E 326 327 5
E 327 328 5
E 328 329 5
E 329 330 5
E 330 331 5
E 331 332 5
E 333 334 5
E 335 336 5
E 336 337 5
E 338 339 5
E 339 340 5
E 342 343 5
E 343 344 5
E 344 345 5
E 345 346 5
E 346 347 5
E 347 348 5
E 348 349 5
E 349 350 5
E 350 351 5
E 351 352 5
E 352 353 5
E 353 354 5
E 354 355 5
E 355 356 5
E 356 357 5
E 357 358 5
E 358 359 5
E 359 360 5
E 360 361 5
E 361 362 5
E 363 364 5
E 364 365 5
E 365 366 5
E 366 367 5
E 368 369 5
E 369 370 5
E 370 371 5
E 371 372 5
E 372 373 5
E 324 374 13
E 325 375 13
E 326 376 13
E 327 377 13
E 328 378 13
E 329 379 13
E 330 380 13
E 331 381 13
E 332 382 13
E 333 384 13
E 334 385 13
E 335 389 13
E 336 390 13
E 337 391 13
E 338 395 13
E 339 396 13
E 340 397 13
E 341 399 13
E 342 400 13
E 343 401 13
E 344 402 13
E 345 403 13
E 346 404 13
E 347 405 13
E 348 406 13
E 349 407 13
E 350 408 13
E 351 409 13
E 353 411 13
E 357 412 13
E 359 414 13
E 360 415 13
E 361 416 13
E 362 417 13
E 363 421 13
E 367 422 13
E 368 424 13
E 369 425 13
E 370 426 13
E 371 427 13
E 372 428 13
E 373 429 13
E 374 375 5
E 375 376 5
E 376 377 5
E 377 378 5
E 378 379 5
E 379 380 5
E 380 381 5
E 381 382 5
E 382 383 5
E 383 384 5
E 384 385 5
E 385 386 5
E 386 387 5
E 387 388 5
E 388 389 5
E 389 390 5
E 390 391 5
E 391 392 5
E 392 393 5
E 393 394 5
E 394 395 5
E 395 396 5
E 396 397 5
E 397 398 5
E 398 399 5
E 400 401 5
E 401 402 5
E 402 403 5
E 403 404 5
E 404 405 5
E 405 406 5
E 406 407 5
E 407 408 5
E 408 409 5
E 409 410 5
E 410 411 5
E 412 413 5
E 413 414 5
E 414 415 5
E 415 416 5
E 416 417 5
E 417 418 5
E 418 419 5
E 419 420 5
E 420 421 5
E 422 423 5
E 423 424 5
E 424 425 5
E 425 426 5
E 426 427 5
E 427 428 5
E 428 429 5
E 374 430 13
E 376 432 13
E 377 433 13
E 379 435 13
E 380 436 13
E 381 437 13
E 382 438 13
E 383 439 13
E 384 440 13
E 385 441 13
E 386 442 13
E 387 443 13
E 388 444 13
E 389 445 13
E 390 446 13
E 391 447 13
E 392 448 13
E 393 449 13
E 394 450 13
E 395 451 13
E 396 452 13
E 397 453 13
E 398 454 13
E 399 455 13
E 400 457 13
E 401 458 13
E 405 459 13
E 406 460 13
E 407 461 13
E 408 462 13
E 410 464 13
E 411 465 13
E 412 469 13
E 413 470 13
E 414 471 13
E 415 472 13
E 416 473 13
E 417 474 13
E 418 475 13
E 419 476 13
E 420 477 13
E 421 478 13
E 422 482 13
E 423 483 13
E 424 484 13
E 425 485 13
E 426 486 13
E 428 487 13
E 429 488 13
E 430 431 5
E 431 432 5
E 432 433 5
E 433 434 5
E 434 435 5
E 435 436 5
E 436 437 5
E 437 438 5
E 438 439 5
E 439 440 5
E 440 441 5
E 441 442 5
E 442 443 5
E 443 444 5
E 444 445 5
E 445 446 5
E 446 447 5
E 447 448 5
E 448 449 5
E 449 450 5
E 450 451 5
E 451 452 5
E 452 453 5
E 453 454 5
E 454 455 5
E 455 456 5
E 456 457 5
E 457 458 5
E 459 460 5
E 460 461 5
E 461 462 5
E 462 463 5
E 463 464 5
E 464 465 5
E 465 466 5
E 466 467 5
E 467 468 5
E 468 469 5
E 469 470 5
E 470 471 5
E 471 472 5
E 472 473 5
E 473 474 5
E 474 475 5
E 475 476 5
E 476 477 5
E 477 478 5
E 478 479 5
E 479 480 5
E 480 481 5
E 481 482 5
E 482 483 5
E 483 484 5
E 484 485 5
E 485 486 5
E 487 488 5
E 430 489 13
E 432 491 13
E 433 492 13
E 434 493 13
E 435 494 13
E 436 495 13
E 437 496 13
E 438 497 13
E 439 498 13
E 440 499 13
E 441 500 13
E 442 501 13
E 444 502 13
E 445 503 13
E 446 504 13
E 447 505 13
E 448 506 13
E 449 507 13
E 450 508 13
E 452 510 13
E 453 511 13
E 454 512 13
E 455 513 13
E 456 514 13
E 457 515 13
E 458 516 13
E 459 517 13
E 460 518 13
E 462 519 13
E 463 520 13
E 464 521 13
E 465 522 13
E 467 524 13
E 468 525 13
E 469 526 13
E 473 527 13
E 474 528 13
E 476 529 13
E 478 531 13
E 479 532 13
E 480 533 13
E 481 534 13
E 482 535 13
E 483 536 13
E 484 537 13
E 485 538 13
E 486 539 13
E 487 540 13
E 488 541 13
E 489 490 5
E 490 491 5
E 491 492 5
E 492 493 5
E 493 494 5
E 494 495 5
E 495 496 5
E 496 497 5
E 497 498 5
E 498 499 5
E 499 500 5
E 500 501 5
E 502 503 5
E 503 504 5
E 504 505 5
E 505 506 5
E 506 507 5
E 507 508 5
E 508 509 5
E 509 510 5
E 510 511 5
E 511 512 5
E 512 513 5
E 513 514 5
E 514 515 5
E 515 516 5
E 517 518 5
E 519 520 5
E 520 521 5
E 521 522 5
E 522 523 5
E 523 524 5
E 524 525 5
E 525 526 5
E 527 528 5
E 529 530 5
E 530 531 5
E 531 532 5
E 532 533 5
E 533 534 5
E 534 535 5
E 535 536 5
E 536 537 5
E 537 538 5
E 538 539 5
E 540 541 5
E 489 542 13
E 490 543 13
E 491 544 13
E 492 545 13
E 494 546 13
E 496 547 13
E 497 548 13
E 499 550 13
E 500 551 13
E 501 552 13
E 502 553 13
E 503 554 13
E 504 555 13
E 505 556 13
E 506 557 13
E 507 558 13
E 508 559 13
E 509 560 13
E 510 561 13
E 511 562 13
E 512 563 13
E 513 564 13
E 514 565 13
E 515 566 13
E 516 567 13
E 517 568 13
E 518 569 13
E 519 570 13
E 520 571 13
E 521 572 13
E 522 573 13
E 523 574 13
E 524 575 13
E 526 576 13
E 527 580 13
E 528 581 13
E 529 582 13
E 531 584 13
E 532 585 13
E 533 586 13
E 534 587 13
E 535 588 13
E 537 589 13
E 538 590 13
E 539 591 13
E 540 593 13
E 541 594 13
E 542 543 5
E 543 544 5
E 544 545 5
E 547 548 5
E 548 549 5
E 549 550 5
E 550 551 5
E 551 552 5
E 553 554 5
E 554 555 5
E 555 556 5
E 556 557 5
E 557 558 5
E 558 559 5
E 559 560 5
E 560 561 5
E 561 562 5
E 562 563 5
E 563 564 5
E 564 565 5
E 565 566 5
E 566 567 5
E 568 569 5
E 570 571 5
E 571 572 5
E 572 573 5
E 573 574 5
E 574 575 5
E 576 577 5
E 577 578 5
E 578 579 5
E 579 580 5
E 580 581 5
E 582 583 5
E 583 584 5
E 584 585 5
E 585 586 5
E 586 587 5
E 587 588 5
E 589 590 5
E 590 591 5
E 591 592 5
E 592 593 5
E 593 594 5
E 542 595 13
E 543 596 13
E 544 597 13
E 545 598 13
E 546 599 13
E 547 600 13
E 549 602 13
E 551 603 13
E 552 604 13
E 553 606 13
E 557 607 13
E 559 608 13
E 560 609 13
E 561 610 13
E 562 611 13
E 563 612 13
E 564 613 13
E 565 614 13
E 566 615 13
E 567 616 13
E 568 617 13
E 569 618 13
E 570 620 13
E 571 621 13
E 572 622 13
E 573 623 13
E 574 624 13
E 575 625 13
E 576 626 13
E 578 628 13
E 580 630 13
E 581 631 13
E 582 633 13
E 584 635 13
E 585 636 13
E 586 637 13
E 587 638 13
E 588 639 13
E 589 640 13
E 590 641 13
E 591 642 13
E 592 643 13
E 593 644 13
E 594 645 13
E 595 596 5
E 596 597 5
E 597 598 5
E 600 601 5
E 601 602 5
E 603 604 5
E 604 605 5
E 605 606 5
E 608 609 5
E 609 610 5
E 610 611 5
E 611 612 5
E 612 613 5
E 613 614 5
E 614 615 5
E 615 616 5
E 617 618 5
E 618 619 5
E 619 620 5
E 620 621 5
E 621 622 5
E 622 623 5
E 623 624 5
E 624 625 5
E 626 627 5
E 627 628 5
E 628 629 5
E 629 630 5
E 630 631 5
E 631 632 5
E 632 633 5
E 633 634 5
E 634 635 5
E 635 636 5
E 636 637 5
E 637 638 5
E 638 639 5
E 640 641 5
E 641 642 5
E 642 643 5
E 643 644 5
E 644 645 5
E 595 646 13
E 598 649 13
E 599 651 13
E 600 653 13
E 601 654 13
E 602 655 13
E 603 656 13
E 604 657 13
E 605 658 13
E 606 659 13
E 607 663 13
E 608 664 13
E 609 665 13
E 610 666 13
E 611 667 13
E 612 668 13
E 613 669 13
E 614 670 13
E 615 671 13
E 616 672 13
E 617 676 13
E 618 677 13
E 619 678 13
E 620 679 13
E 621 680 13
E 625 681 13
E 626 683 13
E 628 685 13
E 630 686 13
E 631 687 13
E 633 688 13
E 635 690 13
E 636 691 13
E 637 692 13
E 638 693 13
E 639 694 13
E 640 696 13
E 641 697 13
E 642 698 13
E 645 701 13
E 646 647 5
E 647 648 5
E 648 649 5
E 649 650 5
E 650 651 5
E 651 652 5
E 652 653 5
E 653 654 5
E 654 655 5
E 656 657 5
E 657 658 5
E 658 659 5
E 659 660 5
E 660 661 5
E 661 662 5
E 662 663 5
E 664 665 5
E 665 666 5
E 666 667 5
E 667 668 5
E 668 669 5
E 669 670 5
E 670 671 5
E 671 672 5
E 672 673 5
E 673 674 5
E 674 675 5
E 675 676 5
E 676 677 5
E 677 678 5
E 678 679 5
E 679 680 5
E 681 682 5
E 682 683 5
E 683 684 5
E 684 685 5
E 686 687 5
E 688 689 5
E 689 690 5
E 690 691 5
E 691 692 5
E 692 693 5
E 693 694 5
E 694 695 5
E 695 696 5
E 696 697 5
E 697 698 5
E 698 699 5
E 699 700 5
E 700 701 5
E 646 702 13
E 647 703 13
E 648 704 13
E 649 705 13
E 650 706 13
E 651 707 13
E 652 708 13
E 653 709 13
E 654 710 13
E 655 711 13
E 656 713 13
E 657 714 13
E 658 715 13
E 659 716 13
E 660 717 13
E 661 718 13
E 662 719 13
E 663 720 13
E 664 722 13
E 666 723 13
E 667 724 13
E 668 725 13
E 669 726 13
E 670 727 13
E 672 728 13
E 673 729 13
E 674 730 13
E 675 731 13
E 676 732 13
E 677 733 13
E 678 734 13
E 679 735 13
E 680 736 13
E 681 740 13
E 682 741 13
E 683 742 13
E 685 744 13
E 686 745 13
E 687 746 13
E 688 747 13
E 689 748 13
E 690 749 13
E 694 750 13
E 695 751 13
E 696 752 13
E 697 753 13
E 699 754 13
E 700 755 13
E 702 703 5
E 703 704 5
E 704 705 5
E 705 706 5
E 706 707 5
E 707 708 5
E 708 709 5
E 709 710 5
E 710 711 5
E 711 712 5
E 712 713 5
E 713 714 5
E 714 715 5
E 715 716 5
E 716 717 5
E 717 718 5
E 718 719 5
E 719 720 5
E 720 721 5
E 721 722 5
E 723 724 5
E 724 725 5
E 725 726 5
E 726 727 5
E 728 729 5
E 729 730 5
E 730 731 5
E 731 732 5
E 732 733 5
E 733 734 5
E 734 735 5
E 735 736 5
E 736 737 5
E 737 738 5
E 738 739 5
E 739 740 5
E 740 741 5
E 741 742 5
E 742 743 5
E 743 744 5
E 745 746 5
E 747 748 5
E 748 749 5
E 750 751 5
E 751 752 5
E 752 753 5
E 754 755 5
E 755 756 5
E 702 757 13
E 703 758 13
E 704 759 13
E 705 760 13
E 707 761 13
E 709 762 13
E 710 763 13
E 711 764 13
E 712 765 13
E 713 766 13
E 714 767 13
E 715 768 13
E 716 769 13
E 717 770 13
E 718 771 13
E 720 772 13
E 721 773 13
E 722 774 13
E 723 775 13
E 724 776 13
E 725 777 13
E 726 778 13
E 727 779 13
E 728 780 13
E 729 781 13
E 730 782 13
E 731 783 13
E 732 784 13
E 733 785 13
E 734 786 13
E 735 787 13
E 736 788 13
E 738 790 13
E 739 791 13
E 740 792 13
E 744 793 13
E 745 795 13
E 746 796 13
E 747 798 13
E 748 799 13
E 749 800 13
E 750 804 13
E 751 805 13
E 752 806 13
E 753 807 13
E 754 808 13
E 755 809 13
E 756 810 13
E 757 758 5
E 758 759 5
E 759 760 5
E 762 763 5
E 763 764 5
E 764 765 5
E 765 766 5
E 766 767 5
E 767 768 5
E 768 769 5
E 769 770 5
E 770 771 5
E 772 773 5
E 773 774 5
E 775 776 5
E 776 777 5
E 777 778 5
E 778 779 5
E 780 781 5
E 781 782 5
E 782 783 5
E 783 784 5
E 784 785 5
E 785 786 5
E 786 787 5
E 787 788 5
E 788 789 5
E 789 790 5
E 790 791 5
E 791 792 5
E 793 794 5
E 794 795 5
E 795 796 5
E 796 797 5
E 797 798 5
E 798 799 5
E 799 800 5
E 800 801 5
E 801 802 5
E 802 803 5
E 803 804 5
E 804 805 5
E 805 806 5
E 806 807 5
E 808 809 5
E 809 810 5
E 759 811 13
E 760 812 13
E 761 813 13
E 762 814 13
E 763 815 13
E 764 816 13
E 766 817 13
E 767 818 13
E 768 819 13
E 769 820 13
E 770 821 13
E 771 822 13
E 772 823 13
E 773 824 13
E 774 825 13
E 775 827 13
E 776 828 13
E 777 829 13
E 778 830 13
E 779 831 13
E 780 833 13
E 781 834 13
E 782 835 13
E 783 836 13
E 786 837 13
E 787 838 13
E 788 839 13
E 789 840 13
E 790 841 13
E 792 843 13
E 793 847 13
E 794 848 13
E 795 849 13
E 796 850 13
E 798 851 13
E 800 853 13
E 801 854 13
E 802 855 13
E 803 856 13
E 804 857 13
E 806 858 13
E 807 859 13
E 808 861 13
E 809 862 13
E 810 863 13
E 811 812 5
E 814 815 5
E 815 816 5
E 817 818 5
E 818 819 5
E 819 820 5
E 820 821 5
E 821 822 5
E 823 824 5
E 824 825 5
E 825 826 5
E 826 827 5
E 827 828 5
E 828 829 5
E 829 830 5
E 830 831 5
E 831 832 5
E 832 833 5
E 833 834 5
E 834 835 5
E 835 836 5
E 837 838 5
E 838 839 5
E 839 840 5
E 840 841 5
E 841 842 5
E 842 843 5
E 843 844 5
E 844 845 5
E 845 846 5
E 846 847 5
E 847 848 5
E 848 849 5
E 849 850 5
E 851 852 5
E 852 853 5
E 853 854 5
E 854 855 5
E 855 856 5
E 856 857 5
E 858 859 5
E 859 860 5
E 860 861 5
E 861 862 5
E 862 863 5
E 811 866 13
E 812 867 13
E 813 869 13
E 814 871 13
E 815 872 13
E 816 873 13
E 817 874 13
E 818 875 13
E 820 877 13
E 822 879 13
E 823 881 13
E 824 882 13
E 825 883 13
E 826 884 13
E 827 885 13
E 828 886 13
E 829 887 13
E 830 888 13
E 831 889 13
E 832 890 13
E 833 891 13
E 834 892 13
E 835 893 13
E 836 894 13
E 837 895 13
E 838 896 13
E 839 897 13
E 840 898 13
E 843 899 13
E 845 901 13
E 846 902 13
E 847 903 13
E 849 905 13
E 850 906 13
E 851 907 13
E 853 908 13
E 857 909 13
E 858 910 13
E 859 911 13
E 860 912 13
E 861 913 13
E 862 914 13
E 863 915 13
E 864 865 5
E 865 866 5
E 866 867 5
E 867 868 5
E 868 869 5
E 869 870 5
E 870 871 5
E 871 872 5
E 872 873 5
E 874 875 5
E 875 876 5
E 876 877 5
E 877 878 5
E 878 879 5
E 879 880 5
E 880 881 5
E 881 882 5
E 882 883 5
E 883 884 5
E 884 885 5
E 885 886 5
E 886 887 5
E 887 888 5
E 888 889 5
E 889 890 5
E 890 891 5
E 891 892 5
E 892 893 5
E 893 894 5
E 895 896 5
E 896 897 5
E 897 898 5
E 899 900 5
E 900 901 5
E 901 902 5
E 902 903 5
E 903 904 5
E 904 905 5
E 905 906 5
E 910 911 5
E 911 912 5
E 912 913 5
E 913 914 5
E 914 915 5
E 864 916 13
E 865 917 13
E 866 918 13
E 867 919 13
E 868 920 13
E 869 921 13
E 870 922 13
E 871 923 13
E 873 925 13
E 874 927 13
E 876 929 13
E 877 930 13
E 879 932 13
E 880 933 13
E 881 934 13
E 882 935 13
E 883 936 13
E 884 937 13
E 885 938 13
E 886 939 13
E 888 940 13
E 890 941 13
E 891 942 13
E 892 943 13
E 893 944 13
E 894 945 13
E 895 948 13
E 896 949 13
E 898 951 13
E 899 952 13
E 900 953 13
E 901 954 13
E 903 956 13
E 905 958 13
E 906 959 13
E 907 961 13
E 908 962 13
E 909 966 13
E 910 968 13
E 911 969 13
E 913 970 13
E 914 971 13
E 915 972 13
E 916 917 5
E 917 918 5
E 918 919 5
E 919 920 5
E 920 921 5
E 921 922 5
E 922 923 5
E 923 924 5
E 924 925 5
E 925 926 5
E 926 927 5
E 927 928 5
E 928 929 5
E 929 930 5
E 930 931 5
E 931 932 5
E 932 933 5
E 933 934 5
E 934 935 5
E 935 936 5
E 936 937 5
E 937 938 5
E 938 939 5
E 941 942 5
E 942 943 5
E 943 944 5
E 944 945 5
E 945 946 5
E 946 947 5
E 947 948 5
E 948 949 5
E 949 950 5
E 950 951 5
E 952 953 5
E 953 954 5
E 954 955 5
E 955 956 5
E 956 957 5
E 957 958 5
E 958 959 5
E 959 960 5
E 960 961 5
E 962 963 5
E 963 964 5
E 964 965 5
E 965 966 5
E 966 967 5
E 967 968 5
E 968 969 5
E 970 971 5
E 971 972 5
E 916 973 13
E 919 976 13
E 921 977 13
E 923 979 13
E 925 981 13
E 926 982 13
E 927 983 13
E 928 984 13
E 929 985 13
E 930 986 13
E 932 988 13
E 933 989 13
E 934 990 13
E 938 991 13
E 939 992 13
E 940 993 13
E 941 994 13
E 943 995 13
E 944 996 13
E 945 997 13
E 946 998 13
E 947 999 13
E 949 1001 13
E 950 1002 13
E 951 1003 13
E 952 1006 13
E 955 1007 13
E 956 1008 13
E 958 1010 13
E 959 1011 13
E 960 1012 13
E 961 1013 13
E 962 1015 13
E 963 1016 13
E 964 1017 13
E 966 1019 13
E 967 1020 13
E 968 1021 13
E 969 1022 13
E 970 1023 13
E 971 1024 13
E 972 1025 13
E 973 974 5
E 974 975 5
E 975 976 5
E 977 978 5
E 978 979 5
E 979 980 5
E 980 981 5
E 981 982 5
E 982 983 5
E 983 984 5
E 984 985 5
E 985 986 5
E 986 987 5
E 987 988 5
E 988 989 5
E 989 990 5
E 991 992 5
E 995 996 5
E 996 997 5
E 997 998 5
E 998 999 5
E 999 1000 5
E 1000 1001 5
E 1001 1002 5
E 1002 1003 5
E 1003 1004 5
E 1004 1005 5
E 1005 1006 5
E 1007 1008 5
E 1008 1009 5
E 1009 1010 5
E 1010 1011 5
E 1011 1012 5
E 1012 1013 5
E 1013 1014 5
E 1014 1015 5
E 1015 1016 5
E 1016 1017 5
E 1017 1018 5
E 1018 1019 5
E 1019 1020 5
E 1020 1021 5
E 1021 1022 5
E 1023 1024 5
E 1024 1025 5
E 973 1026 13
E 974 1027 13
E 976 1028 13
E 977 1029 13
E 979 1031 13
E 980 1032 13
E 981 1033 13
E 982 1034 13
E 983 1035 13
E 984 1036 13
E 986 1037 13
E 987 1038 13
E 988 1039 13
E 989 1040 13
E 990 1041 13
E 991 1042 13
E 992 1043 13
E 993 1045 13
E 994 1047 13
E 995 1048 13
E 997 1049 13
E 1000 1050 13
E 1001 1051 13
E 1002 1052 13
E 1003 1053 13
E 1004 1054 13
E 1005 1055 13
E 1006 1056 13
E 1007 1057 13
E 1008 1058 13
E 1009 1059 13
E 1010 1060 13
E 1012 1062 13
E 1013 1063 13
E 1014 1064 13
E 1015 1065 13
E 1016 1066 13
E 1019 1067 13
E 1021 1068 13
E 1022 1069 13
E 1023 1071 13
E 1024 1072 13
E 1025 1073 13
E 1026 1027 5
E 1029 1030 5
E 1030 1031 5
E 1031 1032 5
E 1032 1033 5
E 1033 1034 5
E 1034 1035 5
E 1035 1036 5
E 1037 1038 5
E 1038 1039 5
E 1039 1040 5
E 1040 1041 5
E 1042 1043 5
E 1043 1044 5
E 1044 1045 5
E 1045 1046 5
E 1046 1047 5
E 1050 1051 5
E 1051 1052 5
E 1052 1053 5
E 1053 1054 5
E 1054 1055 5
E 1055 1056 5
E 1057 1058 5
E 1058 1059 5
E 1059 1060 5
E 1060 1061 5
E 1061 1062 5
E 1062 1063 5
E 1063 1064 5
E 1064 1065 5
E 1065 1066 5
E 1068 1069 5
E 1069 1070 5
E 1070 1071 5
E 1071 1072 5
E 1072 1073 5
E 1026 1074 13
E 1027 1075 13
E 1028 1076 13
E 1029 1078 13
E 1030 1079 13
E 1031 1080 13
E 1032 1081 13
E 1033 1082 13
E 1035 1083 13
E 1036 1084 13
E 1037 1085 13
E 1039 1086 13
E 1041 1087 13
E 1042 1088 13
E 1043 1089 13
E 1044 1090 13
E 1045 1091 13
E 1046 1092 13
E 1047 1093 13
E 1048 1095 13
E 1049 1096 13
E 1050 1097 13
E 1051 1098 13
E 1052 1099 13
E 1054 1101 13
E 1056 1103 13
E 1057 1106 13
E 1058 1107 13
E 1060 1109 13
E 1061 1110 13
E 1064 1111 13
E 1065 1112 13
E 1066 1113 13
E 1067 1114 13
E 1068 1115 13
E 1071 1118 13
E 1074 1075 5
E 1076 1077 5
E 1077 1078 5
E 1078 1079 5
E 1079 1080 5
E 1080 1081 5
E 1081 1082 5
E 1083 1084 5
E 1088 1089 5
E 1089 1090 5
E 1090 1091 5
E 1091 1092 5
E 1092 1093 5
E 1093 1094 5
E 1094 1095 5
E 1097 1098 5
E 1098 1099 5
E 1099 1100 5
E 1100 1101 5
E 1101 1102 5
E 1102 1103 5
E 1103 1104 5
E 1104 1105 5
E 1105 1106 5
E 1106 1107 5
E 1107 1108 5
E 1108 1109 5
E 1109 1110 5
E 1111 1112 5
E 1112 1113 5
E 1115 1116 5
E 1116 1117 5
E 1117 1118 5
E 1118 1119 5
E 1119 1120 5
E 1074 1121 13
E 1075 1122 13
E 1076 1124 13
E 1077 1125 13
E 1078 1126 13
E 1080 1128 13
E 1081 1129 13
E 1082 1130 13
E 1083 1131 13
E 1084 1132 13
E 1085 1134 13
E 1086 1135 13
E 1087 1136 13
E 1088 1137 13
E 1089 1138 13
E 1091 1139 13
E 1095 1140 13
E 1096 1142 13
E 1097 1145 13
E 1098 1146 13
E 1099 1147 13
E 1100 1148 13
E 1101 1149 13
E 1102 1150 13
E 1103 1151 13
E 1104 1152 13
E 1105 1153 13
E 1106 1154 13
E 1107 1155 13
E 1109 1156 13
E 1110 1157 13
E 1111 1158 13
E 1112 1159 13
E 1113 1160 13
E 1114 1163 13
E 1115 1165 13
E 1116 1166 13
E 1117 1167 13
E 1118 1168 13
E 1120 1169 13
E 1121 1122 5
E 1122 1123 5
E 1123 1124 5
E 1124 1125 5
E 1125 1126 5
E 1126 1127 5
E 1127 1128 5
E 1128 1129 5
E 1129 1130 5
E 1131 1132 5
E 1132 1133 5
E 1133 1134 5
E 1137 1138 5
E 1140 1141 5
E 1141 1142 5
E 1142 1143 5
E 1143 1144 5
E 1144 1145 5
E 1145 1146 5
E 1146 1147 5
E 1147 1148 5
E 1148 1149 5
E 1149 1150 5
E 1150 1151 5
E 1151 1152 5
E 1152 1153 5
E 1153 1154 5
E 1154 1155 5
E 1156 1157 5
E 1158 1159 5
E 1159 1160 5
E 1160 1161 5
E 1161 1162 5
E 1162 1163 5
E 1163 1164 5
E 1164 1165 5
E 1165 1166 5
E 1166 1167 5
E 1167 1168 5
E 1122 1170 13
E 1123 1171 13
E 1124 1172 13
E 1126 1173 13
E 1127 1174 13
E 1128 1175 13
E 1129 1176 13
E 1130 1177 13
E 1131 1179 13
E 1132 1180 13
E 1133 1181 13
E 1134 1182 13
E 1135 1184 13
E 1136 1186 13
E 1137 1190 13
E 1138 1191 13
E 1139 1192 13
E 1140 1196 13
E 1141 1197 13
E 1142 1198 13
E 1143 1199 13
E 1144 1200 13
E 1147 1201 13
E 1148 1202 13
E 1150 1203 13
E 1151 1204 13
E 1153 1205 13
E 1155 1207 13
E 1156 1208 13
E 1157 1209 13
E 1158 1212 13
E 1159 1213 13
E 1160 1214 13
E 1161 1215 13
E 1162 1216 13
E 1163 1217 13
E 1164 1218 13
E 1165 1219 13
E 1166 1220 13
E 1167 1221 13
E 1168 1222 13
E 1169 1223 13
E 1170 1171 5
E 1171 1172 5
E 1173 1174 5
E 1174 1175 5
E 1175 1176 5
E 1176 1177 5
E 1177 1178 5
E 1178 1179 5
E 1179 1180 5
E 1180 1181 5
E 1181 1182 5
E 1182 1183 5
E 1183 1184 5
E 1184 1185 5
E 1185 1186 5
E 1186 1187 5
E 1187 1188 5
E 1188 1189 5
E 1189 1190 5
E 1190 1191 5
E 1192 1193 5
E 1193 1194 5
E 1194 1195 5
E 1195 1196 5
E 1196 1197 5
E 1197 1198 5
E 1198 1199 5
E 1199 1200 5
E 1201 1202 5
E 1203 1204 5
E 1205 1206 5
E 1206 1207 5
E 1208 1209 5
E 1209 1210 5
E 1210 1211 5
E 1211 1212 5
E 1212 1213 5
E 1213 1214 5
E 1214 1215 5
E 1215 1216 5
E 1216 1217 5
E 1217 1218 5
E 1218 1219 5
E 1219 1220 5
E 1220 1221 5
E 1221 1222 5
E 1170 1225 13
E 1171 1226 13
E 1172 1227 13
E 1173 1228 13
E 1174 1229 13
E 1175 1230 13
E 1176 1231 13
E 1177 1232 13
E 1178 1233 13
E 1179 1234 13
E 1180 1235 13
E 1182 1236 13
E 1183 1237 13
E 1184 1238 13
E 1185 1239 13
E 1186 1240 13
E 1187 1241 13
E 1188 1242 13
E 1189 1243 13
E 1190 1244 13
E 1191 1245 13
E 1192 1247 13
E 1196 1248 13
E 1197 1249 13
E 1198 1250 13
E 1199 1251 13
E 1200 1252 13
E 1201 1253 13
E 1202 1254 13
E 1203 1255 13
E 1204 1256 13
E 1205 1257 13
E 1206 1258 13
E 1207 1259 13
E 1208 1261 13
E 1210 1263 13
E 1211 1264 13
E 1212 1265 13
E 1213 1266 13
E 1214 1267 13
E 1216 1268 13
E 1217 1269 13
E 1218 1270 13
E 1219 1271 13
E 1222 1274 13
E 1223 1276 13
E 1224 1225 5
E 1225 1226 5
E 1226 1227 5
E 1228 1229 5
E 1229 1230 5
E 1230 1231 5
E 1231 1232 5
E 1232 1233 5
E 1233 1234 5
E 1234 1235 5
E 1236 1237 5
E 1237 1238 5
E 1238 1239 5
E 1239 1240 5
E 1240 1241 5
E 1241 1242 5
E 1242 1243 5
E 1243 1244 5
E 1244 1245 5
E 1245 1246 5
E 1246 1247 5
E 1248 1249 5
E 1249 1250 5
E 1250 1251 5
E 1251 1252 5
E 1253 1254 5
E 1255 1256 5
E 1257 1258 5
E 1258 1259 5
E 1259 1260 5
E 1260 1261 5
E 1261 1262 5
E 1262 1263 5
E 1263 1264 5
E 1264 1265 5
E 1265 1266 5
E 1266 1267 5
E 1268 1269 5
E 1269 1270 5
E 1270 1271 5
E 1271 1272 5
E 1272 1273 5
E 1273 1274 5
E 1274 1275 5
E 1275 1276 5
E 1224 1277 13
E 1225 1278 13
E 1226 1279 13
E 1227 1280 13
E 1228 1282 13
E 1229 1283 13
E 1233 1284 13
E 1234 1285 13
E 1235 1286 13
E 1236 1287 13
E 1237 1288 13
E 1238 1289 13
E 1239 1290 13
E 1240 1291 13
E 1241 1292 13
E 1242 1293 13
E 1244 1294 13
E 1245 1295 13
E 1246 1296 13
E 1247 1297 13
E 1248 1301 13
E 1249 1302 13
E 1250 1303 13
E 1251 1304 13
E 1252 1305 13
E 1253 1308 13
E 1254 1309 13
E 1255 1311 13
E 1256 1312 13
E 1257 1314 13
E 1258 1315 13
E 1259 1316 13
E 1260 1317 13
E 1261 1318 13
E 1262 1319 13
E 1263 1320 13
E 1264 1321 13
E 1265 1322 13
E 1266 1323 13
E 1267 1324 13
E 1268 1326 13
E 1269 1327 13
E 1270 1328 13
E 1273 1331 13
E 1274 1332 13
E 1275 1333 13
E 1276 1334 13
E 1277 1278 5
E 1278 1279 5
E 1279 1280 5
E 1280 1281 5
E 1281 1282 5
E 1282 1283 5
E 1284 1285 5
E 1285 1286 5
E 1287 1288 5
E 1288 1289 5
E 1289 1290 5
E 1290 1291 5
E 1291 1292 5
E 1292 1293 5
E 1294 1295 5
E 1295 1296 5
E 1296 1297 5
E 1297 1298 5
E 1298 1299 5
E 1299 1300 5
E 1300 1301 5
E 1301 1302 5
E 1302 1303 5
E 1303 1304 5
E 1304 1305 5
E 1305 1306 5
E 1306 1307 5
E 1307 1308 5
E 1308 1309 5
E 1309 1310 5
E 1310 1311 5
E 1311 1312 5
E 1312 1313 5
E 1313 1314 5
E 1314 1315 5
E 1315 1316 5
E 1316 1317 5
E 1317 1318 5
E 1318 1319 5
E 1319 1320 5
E 1320 1321 5
E 1321 1322 5
E 1322 1323 5
E 1323 1324 5
E 1324 1325 5
E 1325 1326 5
E 1326 1327 5
E 1327 1328 5
E 1328 1329 5
E 1329 1330 5
E 1330 1331 5
E 1331 1332 5
E 1332 1333 5
E 1333 1334 5
E 1277 1335 13
E 1278 1336 13
E 1279 1337 13
E 1280 1338 13
E 1281 1339 13
E 1282 1340 13
E 1283 1341 13
E 1284 1345 13
E 1285 1346 13
E 1286 1347 13
E 1287 1349 13
E 1288 1350 13
E 1289 1351 13
E 1293 1352 13
E 1294 1353 13
E 1295 1354 13
E 1297 1355 13
E 1298 1356 13
E 1299 1357 13
E 1300 1358 13
E 1301 1359 13
E 1302 1360 13
E 1303 1361 13
E 1304 1362 13
E 1305 1363 13
E 1306 1364 13
E 1307 1365 13
E 1308 1366 13
E 1309 1367 13
E 1310 1368 13
E 1311 1369 13
E 1312 1370 13
E 1313 1371 13
E 1314 1372 13
E 1315 1373 13
E 1317 1374 13
E 1318 1375 13
E 1319 1376 13
E 1322 1377 13
E 1323 1378 13
E 1324 1379 13
E 1325 1380 13
E 1326 1381 13
E 1327 1382 13
E 1329 1383 13
E 1330 1384 13
E 1331 1385 13
E 1332 1386 13
E 1334 1387 13
E 1335 1336 5
E 1336 1337 5
E 1337 1338 5
E 1338 1339 5
E 1339 1340 5
E 1340 1341 5
E 1341 1342 5
E 1342 1343 5
E 1343 1344 5
E 1344 1345 5
E 1345 1346 5
E 1346 1347 5
E 1347 1348 5
E 1348 1349 5
E 1349 1350 5
E 1350 1351 5
E 1353 1354 5
E 1355 1356 5
E 1356 1357 5
E 1357 1358 5
E 1358 1359 5
E 1359 1360 5
E 1360 1361 5
E 1361 1362 5
E 1362 1363 5
E 1363 1364 5
E 1364 1365 5
E 1365 1366 5
E 1366 1367 5
E 1367 1368 5
E 1368 1369 5
E 1369 1370 5
E 1370 1371 5
E 1371 1372 5
E 1372 1373 5
E 1374 1375 5
E 1375 1376 5
E 1377 1378 5
E 1378 1379 5
E 1379 1380 5
E 1380 1381 5
E 1381 1382 5
E 1383 1384 5
E 1384 1385 5
E 1385 1386 5
E 1335 1388 13
E 1336 1389 13
E 1337 1390 13
E 1338 1391 13
E 1339 1392 13
E 1340 1393 13
E 1341 1394 13
E 1342 1395 13
E 1343 1396 13
E 1344 1397 13
E 1345 1398 13
E 1346 1399 13
E 1347 1400 13
E 1348 1401 13
E 1349 1402 13
E 1350 1403 13
E 1351 1404 13
E 1352 1408 13
E 1353 1410 13
E 1354 1411 13
E 1355 1412 13
E 1357 1413 13
E 1358 1414 13
E 1359 1415 13
E 1361 1417 13
E 1364 1420 13
E 1365 1421 13
E 1366 1422 13
E 1367 1423 13
E 1368 1424 13
E 1369 1425 13
E 1370 1426 13
E 1372 1428 13
E 1373 1429 13
E 1374 1430 13
E 1375 1431 13
E 1376 1432 13
E 1377 1433 13
E 1378 1434 13
E 1379 1435 13
E 1382 1438 13
E 1383 1439 13
E 1384 1440 13
E 1386 1441 13
E 1387 1442 13
E 1388 1389 5
E 1389 1390 5
E 1390 1391 5
E 1391 1392 5
E 1392 1393 5
E 1393 1394 5
E 1394 1395 5
E 1395 1396 5
E 1396 1397 5
E 1397 1398 5
E 1398 1399 5
E 1399 1400 5
E 1400 1401 5
E 1401 1402 5
E 1402 1403 5
E 1403 1404 5
E 1404 1405 5
E 1405 1406 5
E 1406 1407 5
E 1407 1408 5
E 1408 1409 5
E 1409 1410 5
E 1410 1411 5
E 1413 1414 5
E 1414 1415 5
E 1415 1416 5
E 1416 1417 5
E 1417 1418 5
E 1418 1419 5
E 1419 1420 5
E 1420 1421 5
E 1421 1422 5
E 1422 1423 5
E 1423 1424 5
E 1424 1425 5
E 1425 1426 5
E 1426 1427 5
E 1427 1428 5
E 1428 1429 5
E 1430 1431 5
E 1431 1432 5
E 1433 1434 5
E 1434 1435 5
E 1435 1436 5
E 1436 1437 5
E 1437 1438 5
E 1439 1440 5
END

SECTION Terminals
Terminals 16
T 46
T 484
T 538
T 540
T 565
T 587
T 620
T 678
T 730
T 1205
T 1248
T 1251
T 1277
T 1287
T 1365
T 1370
END

EOF
